min: k;

l139 + l140 + l141 + r136 + r139 + r135 <= k;
l139 + l140 + l141 + l145 + r139 <= k;
l140 + r135 + r136 + l141 + l136 <= k;
r140 + l140 + r135 + r136 + r139 + l141 <= k;
l140 + l141 + l145 + r139 + r140 <= k;
l141 + r135 + l135 + l136 <= k;
l141 + l145 + r139 + r140 + r141 <= k;
l141 + r139 + r135 + r141 + r140 <= k;
r131 + r135 + l135 + l136 <= k;
r131 + r135 + r136 + l136 <= k;
l145 + r139 + r145 <= k;
l145 + l147 + r145 <= k;
l87 + r83 + r84 + r85 + r87 + l88 <= k;
l85 + l87 + r83 + r84 + r85 + l88 <= k;
l88 + r83 + l84 + l85 + r84 <= k;
l88 + l92 + r87 + r88 <= k;
l88 + r83 + r87 + r88 + r84 <= k;
r83 + l83 + l84 + l85 + r80 <= k;
r83 + r84 + l84 + l85 + r80 <= k;
l92 + r87 + r88 + r92 <= k;
l80 + l84 + l85 + r80 <= k;
l80 + r76 + r80 <= k;
l167 + l169 + r163 + r164 + r167 <= k;
l163 + l164 + l169 + r163 <= k;
l169 + l171 + r167 + r169 <= k;
l164 + l169 + r163 + r164 <= k;
l169 + r163 + r167 + r169 <= k;
l163 + l164 + r161 + r163 <= k;
r127 + r131 + l131 <= k;
r127 + l127 + r123 + r125 <= k;
l125 + l127 + r123 + r125 <= k;
l123 + l125 + r119 + r123 <= k;
l125 + r119 + r123 + r125 <= k;
l119 + l125 + r119 <= k;
l119 + r115 + r119 <= k;
l163 + l164 + r161 + l161 <= k;
r157 + l157 + l161 <= k;
r147 + l147 + r145 <= k;
r147 + r152 + l152 <= k;
r152 + l152 + l157 <= k;
l76 + l80 + r76 <= k;
l92 + l96 + r92 <= k;
l96 + r92 + r96 <= k;
l96 + l100 + r96 <= k;
l100 + r96 + r100 <= k;
l100 + l104 + r100 <= k;
r103 + r104 + l104 + r100 <= k;
r103 + l103 + l104 + r100 <= k;
r103 + r104 + r107 + l107 <= k;
r107 + r111 + l111 <= k;
l115 + r111 + r115 <= k;
l76 + r71 + r76 <= k;
l71 <= k;
r171 <= k;

l71 + r71 = 1;
l76 + r76 = 1;
l80 + r80 = 1;
l83 + r83 = 1;
l84 + r84 = 1;
l85 + r85 = 1;
l87 + r87 = 1;
l88 + r88 = 1;
l92 + r92 = 1;
l96 + r96 = 1;
l100 + r100 = 1;
l103 + r103 = 1;
l104 + r104 = 1;
l107 + r107 = 1;
l111 + r111 = 1;
l115 + r115 = 1;
l119 + r119 = 1;
l123 + r123 = 1;
l125 + r125 = 1;
l127 + r127 = 1;
l131 + r131 = 1;
l135 + r135 = 1;
l136 + r136 = 1;
l139 + r139 = 1;
l140 + r140 = 1;
l141 + r141 = 1;
l145 + r145 = 1;
l147 + r147 = 1;
l152 + r152 = 1;
l157 + r157 = 1;
l161 + r161 = 1;
l163 + r163 = 1;
l164 + r164 = 1;
l167 + r167 = 1;
l169 + r169 = 1;
l171 + r171 = 1;

l71 >= 0;
l71 <= 1;
r71 >= 0;
r71 <= 1;
l76 >= 0;
l76 <= 1;
r76 >= 0;
r76 <= 1;
l80 >= 0;
l80 <= 1;
r80 >= 0;
r80 <= 1;
l83 >= 0;
l83 <= 1;
r83 >= 0;
r83 <= 1;
l84 >= 0;
l84 <= 1;
r84 >= 0;
r84 <= 1;
l85 >= 0;
l85 <= 1;
r85 >= 0;
r85 <= 1;
l87 >= 0;
l87 <= 1;
r87 >= 0;
r87 <= 1;
l88 >= 0;
l88 <= 1;
r88 >= 0;
r88 <= 1;
l92 >= 0;
l92 <= 1;
r92 >= 0;
r92 <= 1;
l96 >= 0;
l96 <= 1;
r96 >= 0;
r96 <= 1;
l100 >= 0;
l100 <= 1;
r100 >= 0;
r100 <= 1;
l103 >= 0;
l103 <= 1;
r103 >= 0;
r103 <= 1;
l104 >= 0;
l104 <= 1;
r104 >= 0;
r104 <= 1;
l107 >= 0;
l107 <= 1;
r107 >= 0;
r107 <= 1;
l111 >= 0;
l111 <= 1;
r111 >= 0;
r111 <= 1;
l115 >= 0;
l115 <= 1;
r115 >= 0;
r115 <= 1;
l119 >= 0;
l119 <= 1;
r119 >= 0;
r119 <= 1;
l123 >= 0;
l123 <= 1;
r123 >= 0;
r123 <= 1;
l125 >= 0;
l125 <= 1;
r125 >= 0;
r125 <= 1;
l127 >= 0;
l127 <= 1;
r127 >= 0;
r127 <= 1;
l131 >= 0;
l131 <= 1;
r131 >= 0;
r131 <= 1;
l135 >= 0;
l135 <= 1;
r135 >= 0;
r135 <= 1;
l136 >= 0;
l136 <= 1;
r136 >= 0;
r136 <= 1;
l139 >= 0;
l139 <= 1;
r139 >= 0;
r139 <= 1;
l140 >= 0;
l140 <= 1;
r140 >= 0;
r140 <= 1;
l141 >= 0;
l141 <= 1;
r141 >= 0;
r141 <= 1;
l145 >= 0;
l145 <= 1;
r145 >= 0;
r145 <= 1;
l147 >= 0;
l147 <= 1;
r147 >= 0;
r147 <= 1;
l152 >= 0;
l152 <= 1;
r152 >= 0;
r152 <= 1;
l157 >= 0;
l157 <= 1;
r157 >= 0;
r157 <= 1;
l161 >= 0;
l161 <= 1;
r161 >= 0;
r161 <= 1;
l163 >= 0;
l163 <= 1;
r163 >= 0;
r163 <= 1;
l164 >= 0;
l164 <= 1;
r164 >= 0;
r164 <= 1;
l167 >= 0;
l167 <= 1;
r167 >= 0;
r167 <= 1;
l169 >= 0;
l169 <= 1;
r169 >= 0;
r169 <= 1;
l171 >= 0;
l171 <= 1;
r171 >= 0;
r171 <= 1;

l71 = 0;
r171 = 0;
